outputs/case_402.model.txt
broker_provide_written_report = True
broker_disclose_fee_standard = True
broker_fiduciary_duty = True
broker_charge_fee = True
broker_duty_of_care = True
is_broker = True
applicability_of_agent_and_broker_rules = True
is_agent = False
insurance_type = True
liability = True
is_notary = False
guarantee = True
minimum_amount_and_implementation_set_by_authority = True
management_rules_set_by_authority = True
bank_permission_granted = False
bank_operate_as_agent = False
bank_operate_as_broker = False
bank_permission_and_applicability = False
related_insurance_purchased = True
license_permitted = True
penalty = False
qualification_and_management_rules = True
agent_license_and_guarantee = True
related_insurance_type = True
broker_report_and_fee_disclosure = True
practice_certificate_held = True
broker_duties = True
guarantee_deposit_paid = True
minimum_amount_and_implementation = True